sat
(:added-eqs                   1689889
 :arith-eq-adapter            4123
 :arith-bound-propagations-lp 89469
 :arith-conflicts             203
 :arith-diseq                 97012
 :arith-fixed-eqs             61924
 :arith-lower                 113959
 :arith-make-feasible         46592
 :arith-max-columns           1929
 :arith-max-rows              951
 :arith-offset-eqs            38211
 :arith-upper                 149353
 :binary-propagations         5588032
 :conflicts                   15192
 :decisions                   1613785
 :del-clause                  12049
 :elim-unconstrained          2
 :final-checks                1
 :max-memory                  52.48
 :memory                      33.97
 :minimized-lits              69114
 :mk-bool-var                 23809
 :mk-clause                   23642
 :mk-clause-binary            17883
 :num-allocs                  444443128
 :num-checks                  1
 :propagations                7185365
 :restarts                    99
 :rlimit-count                33670402
 :time                        63.30
 :total-time                  63.62)
